
Welcome to IBM(R) ILOG(R) CPLEX(R) Interactive Optimizer 22.1.1.0
  with Simplex, Mixed Integer & Barrier Optimizers
5725-A06 5725-A29 5724-Y48 5724-Y49 5724-Y54 5724-Y55 5655-Y21
Copyright IBM Corp. 1988, 2022.  All Rights Reserved.

Type 'help' for a list of available commands.
Type 'help' followed by a command name for more
information on commands.

CPLEX> Selected objective sense:  MINIMIZE
Selected objective  name:  00000000
Selected RHS        name:  RHS1
Selected bound      name:  BOUND
Problem 'ee.mps' read.
Read time = 0.02 sec. (3.17 ticks)
CPLEX> New value for time limit in seconds: 7200
CPLEX> New value for parallel optimization mode: -1
CPLEX> New value for default parallel thread count: 40
CPLEX> New value for mixed integer optimality gap tolerance: 1e-13
CPLEX> Version identifier: 22.1.1.0 | 2022-11-28 | 9160aff4d
CPXPARAM_Threads                                 40
CPXPARAM_Parallel                                -1
CPXPARAM_TimeLimit                               7200
CPXPARAM_MIP_Tolerances_MIPGap                   1e-13
Found incumbent of value 0.000000 after 0.00 sec. (0.31 ticks)
Tried aggregator 2 times.
MIP Presolve eliminated 183 rows and 2745 columns.
MIP Presolve modified 6090 coefficients.
Aggregator did 713 substitutions.
Reduced MIP has 3636 rows, 7840 columns, and 28953 nonzeros.
Reduced MIP has 7840 binaries, 0 generals, 0 SOSs, and 0 indicators.
Presolve time = 0.07 sec. (69.13 ticks)
Probing time = 0.03 sec. (5.35 ticks)
Tried aggregator 1 time.
Detecting symmetries...
Reduced MIP has 3636 rows, 7840 columns, and 28953 nonzeros.
Reduced MIP has 7840 binaries, 0 generals, 0 SOSs, and 0 indicators.
Presolve time = 0.02 sec. (22.10 ticks)
Probing time = 0.02 sec. (5.13 ticks)
Clique table members: 18788.
MIP emphasis: balance optimality and feasibility.
MIP search method: dynamic search.
Parallel mode: opportunistic, using up to 40 threads.
Root relaxation solution time = 0.16 sec. (141.86 ticks)

        Nodes                                         Cuts/
   Node  Left     Objective  IInf  Best Integer    Best Bound    ItCnt     Gap

*     0+    0                            0.0000  -1.54000e+13              --- 
*     0+    0                      -6.00000e+12  -1.54000e+13           156.67%
      0     0  -1.53900e+13   110  -6.00000e+12  -1.53900e+13     2715  156.50%
*     0+    0                      -1.53900e+13  -1.53900e+13             0.00%
      0     0  -1.53900e+13   217  -1.53900e+13     Cuts: 104     3686    0.00%
      0     0  -1.53900e+13   235  -1.53900e+13     Cuts: 100     3830    0.00%
*     0+    0                      -1.53900e+13  -1.53900e+13             0.00%
*     0+    0                      -1.53900e+13  -1.53900e+13             0.00%
*     0+    0                      -1.53900e+13  -1.53900e+13             0.00%
      0     0  -1.00000e+75     0  -1.53900e+13  -1.53900e+13     3830    0.00%
      0     9    infeasible        -1.53900e+13  -1.53900e+13     5822    0.00%
Elapsed time = 2.46 sec. (1480.09 ticks, tree = 0.02 MB, solutions = 7)
    259    17        cutoff        -1.53900e+13  -1.53900e+13    27421    0.00%
    837    13        cutoff        -1.53900e+13  -1.53900e+13    33640    0.00%
   1602    68  -1.53900e+13    20  -1.53900e+13  -1.53900e+13    60604    0.00%
   2374    77  -1.53900e+13    34  -1.53900e+13  -1.53900e+13   115189    0.00%
   3120    76  -1.53900e+13    35  -1.53900e+13  -1.53900e+13    99183    0.00%
   3762    86        cutoff        -1.53900e+13  -1.53900e+13   132111    0.00%
   4160     9        cutoff        -1.53900e+13  -1.53900e+13   284777    0.00%
   4374    27        cutoff        -1.53900e+13  -1.53900e+13   247906    0.00%
   4469    19        cutoff        -1.53900e+13  -1.53900e+13   277485    0.00%

GUB cover cuts applied:  2
Clique cuts applied:  17
Cover cuts applied:  481
Flow cuts applied:  6
Mixed integer rounding cuts applied:  7
Zero-half cuts applied:  2
Lift and project cuts applied:  5
Gomory fractional cuts applied:  15

Root node processing (before b&c):
  Real time             =    1.64 sec. (1476.70 ticks)
Parallel b&c, 40 threads:
  Real time             =    3.98 sec. (2285.43 ticks)
  Sync time (average)   =    1.54 sec.
  Wait time (average)   =    0.00 sec.
                          ------------
Total (root+branch&cut) =    5.62 sec. (3762.13 ticks)

Solution pool: 7 solutions saved.

MIP - Integer optimal solution:  Objective = -1.5389998889e+13
Solution time =    5.75 sec.  Iterations = 290324  Nodes = 4483
Deterministic time = 3762.16 ticks  (653.90 ticks/sec)

CPLEX> Solution 'p8' written to file 'ee.sol'.
CPLEX> 